40
5	8	10	12	16	18	20	26	34	35	37	38	0
5	9	13	14	19	24	26	28	30	33	39	40	0
6	7	11	14	15	20	21	22	23	27	28	31	32	33	35	36	40	0
6	12	14	15	20	21	23	24	28	29	33	34	36	38	39	0
1	2	6	8	9	16	18	19	22	27	30	34	37	38	40	0
3	4	5	9	11	12	22	23	28	30	31	35	0
3	10	12	14	16	17	19	27	28	31	32	33	34	35	0
1	5	9	12	13	14	15	16	17	20	27	28	29	34	37	40	0
2	5	6	8	11	13	14	17	18	19	21	27	33	35	36	38	40	0
1	7	12	13	17	18	19	20	21	22	24	25	29	33	34	38	39	0
3	6	9	13	14	17	18	22	27	28	32	39	0
1	4	6	7	8	10	23	28	29	31	33	34	36	39	0
2	8	9	10	11	14	19	22	23	24	25	26	27	32	37	39	0
2	3	4	7	8	9	11	13	15	16	17	22	25	28	30	34	36	40	0
3	4	8	14	17	18	19	20	22	23	28	31	32	34	36	38	0
1	5	7	8	14	18	21	22	24	25	26	30	31	32	33	34	35	38	39	0
7	8	9	10	11	14	15	20	22	23	33	34	38	39	0
1	5	9	10	11	15	16	20	24	31	35	36	38	0
2	5	7	9	10	13	15	21	22	25	26	27	28	30	33	35	36	37	39	0
1	3	4	8	10	15	17	18	24	26	30	31	32	35	38	40	0
3	4	9	10	16	19	22	23	27	31	37	39	40	0
3	5	6	10	11	13	14	15	16	17	19	21	24	26	27	28	31	32	34	37	38	39	40	0
3	4	6	12	13	15	17	21	24	25	26	29	30	33	40	0
2	4	10	13	16	18	20	22	23	25	26	28	29	33	34	36	37	38	0
10	13	14	16	19	23	24	26	29	30	31	32	33	0
1	2	13	16	19	20	22	23	24	25	28	33	36	37	38	40	0
3	5	7	8	9	11	13	19	21	22	30	31	32	33	38	39	0
2	3	4	6	7	8	11	12	14	15	19	22	24	26	34	35	36	0
4	8	10	12	23	24	25	30	35	37	0
2	5	6	14	16	19	20	23	25	27	29	31	34	36	37	38	0
3	6	7	12	15	16	18	20	21	22	25	27	30	34	38	39	0
3	7	11	13	15	16	20	22	25	27	35	36	37	38	0
2	3	4	7	9	10	12	16	17	19	23	24	25	26	27	35	36	0
1	4	5	7	8	10	12	14	15	16	17	22	24	28	30	31	36	37	38	0
1	3	6	7	9	16	18	19	20	28	29	32	33	36	39	40	0
3	4	9	12	14	15	18	19	24	26	28	30	32	33	34	35	37	39	40	0
1	5	8	13	19	21	22	24	26	29	30	32	34	36	0
1	4	5	9	10	15	16	17	18	20	22	24	26	27	30	31	32	34	40	0
2	4	10	11	12	13	16	17	19	21	22	27	31	35	36	0
2	3	5	8	9	14	20	21	22	23	26	35	36	38	0


comments:
random graph
nodes 40
edges 312
rng seed 934 
